Ba6 Y2 Cu9 O21                          
   1.00000000000000     
     3.7748313807573308    0.0000000000000000    0.0000000000000002
    -0.0000000000000002    3.8101098462782255    0.0000000000000002
    -0.0000000000000001   -0.0000000000000001   59.2122992690095984
   Ba   Cu   O    Ba   Y    Cu   O    Ba   Y    Cu   O 
     2     3     7     2     1     3     7     2     1     3     7
Direct
  0.5000000000000000  0.5000000000000000  0.0726332389864527
  0.5000000000000000  0.5000000000000000  0.1483894072253919
 -0.0000000000000000 -0.0000000000000000  0.0340569942279324
  0.0000000000000000  0.0000000000000000  0.1830328259739546
 -0.0000000000000000 -0.0000000000000000  0.1125699086274236
  0.0000000000000000  0.5000000000000000  0.1144340652962184
  0.5000000000000000  0.0000000000000000  0.0389413777419276
  0.5000000000000000  0.0000000000000000  0.1883493757961676
  0.0000000000000000  0.5000000000000000  0.0384242366790302
  0.0000000000000000  0.5000000000000000  0.1883816478022053
  0.0000000000000000  0.0000000000000000  0.0824581269984807
 -0.0000000000000000 -0.0000000000000000  0.1441970753623643
  0.5000000000000000  0.5000000000000000  0.2757736730148638
  0.5000000000000000  0.5000000000000000  0.3485487941137467
  0.5000000000000000  0.5000000000000000  0.2122639240182646
 -0.0000000000000000 -0.0000000000000000  0.2413294695546243
  0.0000000000000000  0.0000000000000000  0.3830395456401214
  0.0000000000000000 -0.0000000000000000  0.3119995095464936
 -0.0000000000000000  0.5000000000000000  0.3121346971273837
  0.5000000000000000 -0.0000000000000000  0.2365662926975966
  0.5000000000000000  0.0000000000000000  0.3879922753829574
 -0.0000000000000000  0.5000000000000000  0.2366865108618042
  0.0000000000000000  0.5000000000000000  0.3878183173430369
  0.0000000000000000  0.0000000000000000  0.2807367879001740
 -0.0000000000000000 -0.0000000000000000  0.3433500706218869
  0.5000000000000000  0.5000000000000000  0.4760890240126023
  0.5000000000000000  0.5000000000000000  0.5514878630657034
  0.5000000000000000  0.5000000000000000  0.4123744141910500
 -0.0000000000000000 -0.0000000000000000  0.4419419438557041
  0.0000000000000000  0.0000000000000000  0.5899304347678771
  0.0000000000000000  0.0000000000000000  0.5115223768221969
 -0.0000000000000000  0.5000000000000000  0.5098629254914205
  0.5000000000000000 -0.0000000000000000  0.4363081363614628
  0.5000000000000000 -0.0000000000000000  0.5851346084405424
 -0.0000000000000000  0.5000000000000000  0.4362503901559775
 -0.0000000000000000  0.5000000000000000  0.5856574836808390
  0.0000000000000000  0.0000000000000000  0.4799485139677679
 -0.0000000000000000 -0.0000000000000000  0.5416575366463483
 
  0.00000000E+00  0.00000000E+00  0.00000000E+00
  0.00000000E+00  0.00000000E+00  0.00000000E+00
  0.00000000E+00  0.00000000E+00  0.00000000E+00
  0.00000000E+00  0.00000000E+00  0.00000000E+00
  0.00000000E+00  0.00000000E+00  0.00000000E+00
  0.00000000E+00  0.00000000E+00  0.00000000E+00
  0.00000000E+00  0.00000000E+00  0.00000000E+00
  0.00000000E+00  0.00000000E+00  0.00000000E+00
  0.00000000E+00  0.00000000E+00  0.00000000E+00
  0.00000000E+00  0.00000000E+00  0.00000000E+00
  0.00000000E+00  0.00000000E+00  0.00000000E+00
  0.00000000E+00  0.00000000E+00  0.00000000E+00
  0.00000000E+00  0.00000000E+00  0.00000000E+00
  0.00000000E+00  0.00000000E+00  0.00000000E+00
  0.00000000E+00  0.00000000E+00  0.00000000E+00
  0.00000000E+00  0.00000000E+00  0.00000000E+00
  0.00000000E+00  0.00000000E+00  0.00000000E+00
  0.00000000E+00  0.00000000E+00  0.00000000E+00
  0.00000000E+00  0.00000000E+00  0.00000000E+00
  0.00000000E+00  0.00000000E+00  0.00000000E+00
  0.00000000E+00  0.00000000E+00  0.00000000E+00
  0.00000000E+00  0.00000000E+00  0.00000000E+00
  0.00000000E+00  0.00000000E+00  0.00000000E+00
  0.00000000E+00  0.00000000E+00  0.00000000E+00
  0.00000000E+00  0.00000000E+00  0.00000000E+00
  0.00000000E+00  0.00000000E+00  0.00000000E+00
  0.00000000E+00  0.00000000E+00  0.00000000E+00
  0.00000000E+00  0.00000000E+00  0.00000000E+00
  0.00000000E+00  0.00000000E+00  0.00000000E+00
  0.00000000E+00  0.00000000E+00  0.00000000E+00
  0.00000000E+00  0.00000000E+00  0.00000000E+00
  0.00000000E+00  0.00000000E+00  0.00000000E+00
  0.00000000E+00  0.00000000E+00  0.00000000E+00
  0.00000000E+00  0.00000000E+00  0.00000000E+00
  0.00000000E+00  0.00000000E+00  0.00000000E+00
  0.00000000E+00  0.00000000E+00  0.00000000E+00
  0.00000000E+00  0.00000000E+00  0.00000000E+00
  0.00000000E+00  0.00000000E+00  0.00000000E+00
