Ba6 Y2 Cu9 O21
1.0
   3.8446680000000000    0.0000000000000000    0.0000000000000002
  -0.0000000000000002    3.9261520000000001    0.0000000000000002
   0.0000000000000000    0.0000000000000000   59.1183200000000042
Ba Cu O Ba Y Cu O Ba Y Cu O
2 3 7 2 1 3 7 2 1 3 7
direct
   0.5000000000000000    0.5000000000000000    0.0760433000000000 Ba
   0.5000000000000000    0.5000000000000000    0.1482869000000000 Ba
   0.0000000000000000    0.0000000000000000    0.0415007000000000 Cu
   0.0000000000000000    0.0000000000000000    0.1828295000000000 Cu
   0.0000000000000000    0.0000000000000000    0.1121651000000000 Cu
   0.0000000000000000    0.5000000000000000    0.1121651000000000 O
   0.5000000000000000    0.0000000000000000    0.0362957000000000 O
   0.5000000000000000    0.0000000000000000    0.1880345000000000 O
   0.0000000000000000    0.5000000000000000    0.0364953000000000 O
   0.0000000000000000    0.5000000000000000    0.1878349000000000 O
   0.0000000000000000    0.0000000000000000    0.0803291000000000 O
   0.0000000000000000    0.0000000000000000    0.1440011000000000 O
   0.5000000000000000    0.5000000000000000    0.2760433000000000 Ba
   0.5000000000000000    0.5000000000000000    0.3482869000000000 Ba
   0.5000000000000000    0.5000000000000000    0.2121651000000000 Y
   0.0000000000000000    0.0000000000000000    0.2415007000000000 Cu
   0.0000000000000000    0.0000000000000000    0.3828295000000000 Cu
   0.0000000000000000    0.0000000000000000    0.3121651000000000 Cu
   0.0000000000000000    0.5000000000000000    0.3121651000000000 O
   0.5000000000000000    0.0000000000000000    0.2362957000000000 O
   0.5000000000000000    0.0000000000000000    0.3880344999999999 O
   0.0000000000000000    0.5000000000000000    0.2364953000000000 O
   0.0000000000000000    0.5000000000000000    0.3878348999999999 O
   0.0000000000000000    0.0000000000000000    0.2803291000000000 O
   0.0000000000000000    0.0000000000000000    0.3440011000000000 O
   0.5000000000000000    0.5000000000000000    0.4760432999999999 Ba
   0.5000000000000000    0.5000000000000000    0.5482868999999999 Ba
   0.5000000000000000    0.5000000000000000    0.4121651000000000 Y
   0.0000000000000000    0.0000000000000000    0.4415007000000000 Cu
   0.0000000000000000    0.0000000000000000    0.5828295000000000 Cu
   0.0000000000000000    0.0000000000000000    0.5121651000000000 Cu
   0.0000000000000000    0.5000000000000000    0.5121651000000000 O
   0.5000000000000000    0.0000000000000000    0.4362957000000000 O
   0.5000000000000000    0.0000000000000000    0.5880345000000000 O
   0.0000000000000000    0.5000000000000000    0.4364953000000000 O
   0.0000000000000000    0.5000000000000000    0.5878349000000000 O
   0.0000000000000000    0.0000000000000000    0.4803291000000000 O
   0.0000000000000000    0.0000000000000000    0.5440011000000000 O
