Ba6 Y2 Cu9 O17                          
   1.00000000000000     
     3.8110271299205003   -0.0000000000000000    0.0000000000000002
    -0.0000000000000002    3.9169479485896379    0.0000000000000002
    -0.0000000000000000   -0.0000000000000000   57.8717476011351266
   Ba   Cu   O    Ba   Y    Cu   O    Ba   Y    Cu   O 
     2     3     3     2     1     3     7     2     1     3     7
Direct
  0.5000000000000000  0.5000000000000000  0.0934375997222030
  0.5000000000000000  0.5000000000000000  0.1641018348614786
  0.0000000000000000  0.0000000000000000  0.0587785306568395
  0.0000000000000000  0.0000000000000000  0.1984256157710457
  0.0000000000000000  0.0000000000000000  0.1263837409810946
 -0.0000000000000000  0.5000000000000000  0.1253429123212795
 -0.0000000000000000 -0.0000000000000000  0.0907390778696734
 -0.0000000000000000  0.0000000000000000  0.1582879541476342
  0.5000000000000000  0.5000000000000000  0.2904570561002927
  0.5000000000000000  0.5000000000000000  0.3630837463338702
  0.5000000000000000  0.5000000000000000  0.2270327390218252
 -0.0000000000000000 -0.0000000000000000  0.2557431214075371
  0.0000000000000000  0.0000000000000000  0.3977693742737463
  0.0000000000000000 -0.0000000000000000  0.3267528966919707
 -0.0000000000000000  0.5000000000000000  0.3267668647495486
  0.5000000000000000 -0.0000000000000000  0.2507597115212652
  0.5000000000000000 -0.0000000000000000  0.2023939226787903
 -0.0000000000000000  0.5000000000000000  0.2513226871994431
 -0.0000000000000000  0.5000000000000000  0.2020256199281666
  0.0000000000000000  0.0000000000000000  0.2948663550273040
 -0.0000000000000000 -0.0000000000000000  0.3586499922451475
  0.5000000000000000  0.5000000000000000  0.4896207913947576
  0.5000000000000000  0.5000000000000000  0.5603241631043533
  0.5000000000000000  0.5000000000000000  0.4265754144735331
 -0.0000000000000000 -0.0000000000000000  0.4553391835281057
 -0.0000000000000000 -0.0000000000000000  0.5949851743727200
 -0.0000000000000000 -0.0000000000000000  0.5274107786209675
  0.0000000000000000  0.5000000000000000  0.5284209062194294
  0.5000000000000000  0.0000000000000000  0.4512620332552341
  0.5000000000000000 -0.0000000000000000  0.4028473276774118
  0.0000000000000000  0.5000000000000000  0.4516325130268555
 -0.0000000000000000  0.5000000000000000  0.4022648477981607
  0.0000000000000000 -0.0000000000000000  0.4954917809792956
  0.0000000000000000  0.0000000000000000  0.5630223320390073
 
  0.00000000E+00  0.00000000E+00  0.00000000E+00
  0.00000000E+00  0.00000000E+00  0.00000000E+00
  0.00000000E+00  0.00000000E+00  0.00000000E+00
  0.00000000E+00  0.00000000E+00  0.00000000E+00
  0.00000000E+00  0.00000000E+00  0.00000000E+00
  0.00000000E+00  0.00000000E+00  0.00000000E+00
  0.00000000E+00  0.00000000E+00  0.00000000E+00
  0.00000000E+00  0.00000000E+00  0.00000000E+00
  0.00000000E+00  0.00000000E+00  0.00000000E+00
  0.00000000E+00  0.00000000E+00  0.00000000E+00
  0.00000000E+00  0.00000000E+00  0.00000000E+00
  0.00000000E+00  0.00000000E+00  0.00000000E+00
  0.00000000E+00  0.00000000E+00  0.00000000E+00
  0.00000000E+00  0.00000000E+00  0.00000000E+00
  0.00000000E+00  0.00000000E+00  0.00000000E+00
  0.00000000E+00  0.00000000E+00  0.00000000E+00
  0.00000000E+00  0.00000000E+00  0.00000000E+00
  0.00000000E+00  0.00000000E+00  0.00000000E+00
  0.00000000E+00  0.00000000E+00  0.00000000E+00
  0.00000000E+00  0.00000000E+00  0.00000000E+00
  0.00000000E+00  0.00000000E+00  0.00000000E+00
  0.00000000E+00  0.00000000E+00  0.00000000E+00
  0.00000000E+00  0.00000000E+00  0.00000000E+00
  0.00000000E+00  0.00000000E+00  0.00000000E+00
  0.00000000E+00  0.00000000E+00  0.00000000E+00
  0.00000000E+00  0.00000000E+00  0.00000000E+00
  0.00000000E+00  0.00000000E+00  0.00000000E+00
  0.00000000E+00  0.00000000E+00  0.00000000E+00
  0.00000000E+00  0.00000000E+00  0.00000000E+00
  0.00000000E+00  0.00000000E+00  0.00000000E+00
  0.00000000E+00  0.00000000E+00  0.00000000E+00
  0.00000000E+00  0.00000000E+00  0.00000000E+00
  0.00000000E+00  0.00000000E+00  0.00000000E+00
  0.00000000E+00  0.00000000E+00  0.00000000E+00
