Ba6 Y2 Cu9 O17
1.0
   3.8446680000000000    0.0000000000000000    0.0000000000000002
  -0.0000000000000002    3.9261520000000001    0.0000000000000002
   0.0000000000000000    0.0000000000000000   59.1183200000000042
Ba Cu O Ba Y Cu O Ba Y Cu O
2 3 3 2 1 3 7 2 1 3 7
direct
   0.5000000000000000    0.5000000000000000    0.0907111000000000 Ba
   0.5000000000000000    0.5000000000000000    0.1629547000000000 Ba
   0.0000000000000000    0.0000000000000000    0.0561685000000000 Cu
   0.0000000000000000    0.0000000000000000    0.1974973000000000 Cu
   0.0000000000000000    0.0000000000000000    0.1268329000000000 Cu
   0.0000000000000000    0.5000000000000000    0.1268329000000000 O
   0.0000000000000000    0.0000000000000000    0.0949969000000000 O
   0.0000000000000000    0.0000000000000000    0.1586688999999999 O
   0.5000000000000000    0.5000000000000000    0.2907111000000000 Ba
   0.5000000000000000    0.5000000000000000    0.3629547000000000 Ba
   0.5000000000000000    0.5000000000000000    0.2268329000000000 Y
   0.0000000000000000    0.0000000000000000    0.2561685000000000 Cu
   0.0000000000000000    0.0000000000000000    0.3974972999999999 Cu
   0.0000000000000000    0.0000000000000000    0.3268329000000000 Cu
   0.0000000000000000    0.5000000000000000    0.3268328999999999 O
   0.5000000000000000    0.0000000000000000    0.2509635000000000 O
   0.5000000000000000    0.0000000000000000    0.2027023000000000 O
   0.0000000000000000    0.5000000000000000    0.2511631000000000 O
   0.0000000000000000    0.5000000000000000    0.2025027000000000 O
   0.0000000000000000    0.0000000000000000    0.2949969000000000 O
   0.0000000000000000    0.0000000000000000    0.3586689000000000 O
   0.5000000000000000    0.5000000000000000    0.4907111000000000 Ba
   0.5000000000000000    0.5000000000000000    0.5629547000000000 Ba
   0.5000000000000000    0.5000000000000000    0.4268329000000000 Y
   0.0000000000000000    0.0000000000000000    0.4561685000000000 Cu
   0.0000000000000000    0.0000000000000000    0.5974973000000000 Cu
   0.0000000000000000    0.0000000000000000    0.5268329000000000 Cu
   0.0000000000000000    0.5000000000000000    0.5268329000000000 O
   0.5000000000000000    0.0000000000000000    0.4509635000000000 O
   0.5000000000000000    0.0000000000000000    0.4027023000000000 O
   0.0000000000000000    0.5000000000000000    0.4511631000000000 O
   0.0000000000000000    0.5000000000000000    0.4025027000000000 O
   0.0000000000000000    0.0000000000000000    0.4949969000000000 O
   0.0000000000000000    0.0000000000000000    0.5586689000000000 O
