Ba4 Y3 Cu6 O18                          
   1.00000000000000     
     3.7917502950377475    0.0000000000000000    0.0000000000000002
    -0.0000000000000002    3.8276842762359746    0.0000000000000002
    -0.0000000000000000   -0.0000000000000001   58.7142294682289219
   Ba   Y    Cu   O    Ba   Y    Cu   O    Y    O 
     2     1     3     7     2     1     3     7     1     4
Direct
  0.5000000000000000  0.5000000000000000  0.0893449008898438
  0.5000000000000000  0.5000000000000000  0.1627742233298754
  0.5000000000000000  0.5000000000000000  0.0231236920525098
 -0.0000000000000000 -0.0000000000000000  0.0565315427744034
  0.0000000000000000  0.0000000000000000  0.1976170281190196
  0.0000000000000000  0.0000000000000000  0.1265839886866870
 -0.0000000000000000  0.5000000000000000  0.1274602906602471
  0.5000000000000000  0.0000000000000000  0.0528667101007357
  0.5000000000000000  0.0000000000000000  0.0045662866876194
  0.0000000000000000  0.5000000000000000  0.0521975866377608
  0.0000000000000000  0.5000000000000000  0.0040323588228270
  0.0000000000000000  0.0000000000000000  0.0954215162858853
 -0.0000000000000000 -0.0000000000000000  0.1583717446768930
  0.5000000000000000  0.5000000000000000  0.2906848711385762
  0.5000000000000000  0.5000000000000000  0.3643420679850139
  0.5000000000000000  0.5000000000000000  0.2267659842853522
 -0.0000000000000000 -0.0000000000000000  0.2559831807161493
  0.0000000000000000  0.0000000000000000  0.3976310194725151
  0.0000000000000000  0.0000000000000000  0.3266067954677987
  0.0000000000000000  0.5000000000000000  0.3258982086885360
  0.5000000000000000 -0.0000000000000000  0.2509526240864579
  0.5000000000000000  0.0000000000000000  0.2025829633399873
 -0.0000000000000000  0.5000000000000000  0.2509896674941474
 -0.0000000000000000  0.5000000000000000  0.2025052860285155
  0.0000000000000000  0.0000000000000000  0.2948616506901701
 -0.0000000000000000 -0.0000000000000000  0.3578250972106550
  0.5000000000000000  0.5000000000000000  0.4309145003312564
  0.5000000000000000 -0.0000000000000000  0.4494701700382626
  0.5000000000000000 -0.0000000000000000  0.4010915860833741
 -0.0000000000000000  0.5000000000000000  0.4500218861155088
 -0.0000000000000000  0.5000000000000000  0.4018004711034111
 
  0.00000000E+00  0.00000000E+00  0.00000000E+00
  0.00000000E+00  0.00000000E+00  0.00000000E+00
  0.00000000E+00  0.00000000E+00  0.00000000E+00
  0.00000000E+00  0.00000000E+00  0.00000000E+00
  0.00000000E+00  0.00000000E+00  0.00000000E+00
  0.00000000E+00  0.00000000E+00  0.00000000E+00
  0.00000000E+00  0.00000000E+00  0.00000000E+00
  0.00000000E+00  0.00000000E+00  0.00000000E+00
  0.00000000E+00  0.00000000E+00  0.00000000E+00
  0.00000000E+00  0.00000000E+00  0.00000000E+00
  0.00000000E+00  0.00000000E+00  0.00000000E+00
  0.00000000E+00  0.00000000E+00  0.00000000E+00
  0.00000000E+00  0.00000000E+00  0.00000000E+00
  0.00000000E+00  0.00000000E+00  0.00000000E+00
  0.00000000E+00  0.00000000E+00  0.00000000E+00
  0.00000000E+00  0.00000000E+00  0.00000000E+00
  0.00000000E+00  0.00000000E+00  0.00000000E+00
  0.00000000E+00  0.00000000E+00  0.00000000E+00
  0.00000000E+00  0.00000000E+00  0.00000000E+00
  0.00000000E+00  0.00000000E+00  0.00000000E+00
  0.00000000E+00  0.00000000E+00  0.00000000E+00
  0.00000000E+00  0.00000000E+00  0.00000000E+00
  0.00000000E+00  0.00000000E+00  0.00000000E+00
  0.00000000E+00  0.00000000E+00  0.00000000E+00
  0.00000000E+00  0.00000000E+00  0.00000000E+00
  0.00000000E+00  0.00000000E+00  0.00000000E+00
  0.00000000E+00  0.00000000E+00  0.00000000E+00
  0.00000000E+00  0.00000000E+00  0.00000000E+00
  0.00000000E+00  0.00000000E+00  0.00000000E+00
  0.00000000E+00  0.00000000E+00  0.00000000E+00
  0.00000000E+00  0.00000000E+00  0.00000000E+00
