Ba4 Y2 Cu7 O17                          
   1.00000000000000     
     3.8670301043193085    0.0000000000000000    0.0000000000000002
    -0.0000000000000002    3.7915303451707865    0.0000000000000002
     0.0000000000000000   -0.0000000000000001   58.0565235056791806
   Cu   O    Ba   Y    Cu   O    Ba   Y    Cu   O 
     1     3     2     1     3     7     2     1     3     7
Direct
  0.0000000000000000 -0.0000000000000000  0.1640083628541300
 -0.0000000000000000  0.5000000000000000  0.1690036347506478
 -0.0000000000000000  0.0000000000000000  0.1352128324175182
  0.0000000000000000 -0.0000000000000000  0.1963495349797627
  0.5000000000000000  0.5000000000000000  0.3295219685127803
  0.5000000000000000  0.5000000000000000  0.2010748338312731
  0.5000000000000000  0.5000000000000000  0.2657031970079307
 -0.0000000000000000 -0.0000000000000000  0.2951774676257002
  0.0000000000000000  0.0000000000000000  0.2369782027763074
 -0.0000000000000000 -0.0000000000000000  0.3659726619378089
  0.0000000000000000  0.5000000000000000  0.3659486681669769
  0.5000000000000000  0.0000000000000000  0.2906545051573950
  0.5000000000000000 -0.0000000000000000  0.2410390835205350
  0.0000000000000000  0.5000000000000000  0.2900055325999847
 -0.0000000000000000  0.5000000000000000  0.2419536411661316
 -0.0000000000000000 -0.0000000000000000  0.3340510573173339
  0.0000000000000000  0.0000000000000000  0.3978849260383990
  0.5000000000000000  0.5000000000000000  0.5309939300177974
  0.5000000000000000  0.5000000000000000  0.4024993042799966
  0.5000000000000000  0.5000000000000000  0.4663984620955485
 -0.0000000000000000 -0.0000000000000000  0.4952949280406068
  0.0000000000000000  0.0000000000000000  0.4370349991864497
  0.0000000000000000  0.0000000000000000  0.5678680304596671
  0.0000000000000000  0.5000000000000000  0.5630039389488952
  0.5000000000000000  0.0000000000000000  0.4910727810136841
  0.5000000000000000 -0.0000000000000000  0.4414467976723864
  0.0000000000000000  0.5000000000000000  0.4901587361696143
 -0.0000000000000000  0.5000000000000000  0.4420817739783473
 -0.0000000000000000  0.0000000000000000  0.5355794918801539
 -0.0000000000000000 -0.0000000000000000  0.5966597155962416
 
  0.00000000E+00  0.00000000E+00  0.00000000E+00
  0.00000000E+00  0.00000000E+00  0.00000000E+00
  0.00000000E+00  0.00000000E+00  0.00000000E+00
  0.00000000E+00  0.00000000E+00  0.00000000E+00
  0.00000000E+00  0.00000000E+00  0.00000000E+00
  0.00000000E+00  0.00000000E+00  0.00000000E+00
  0.00000000E+00  0.00000000E+00  0.00000000E+00
  0.00000000E+00  0.00000000E+00  0.00000000E+00
  0.00000000E+00  0.00000000E+00  0.00000000E+00
  0.00000000E+00  0.00000000E+00  0.00000000E+00
  0.00000000E+00  0.00000000E+00  0.00000000E+00
  0.00000000E+00  0.00000000E+00  0.00000000E+00
  0.00000000E+00  0.00000000E+00  0.00000000E+00
  0.00000000E+00  0.00000000E+00  0.00000000E+00
  0.00000000E+00  0.00000000E+00  0.00000000E+00
  0.00000000E+00  0.00000000E+00  0.00000000E+00
  0.00000000E+00  0.00000000E+00  0.00000000E+00
  0.00000000E+00  0.00000000E+00  0.00000000E+00
  0.00000000E+00  0.00000000E+00  0.00000000E+00
  0.00000000E+00  0.00000000E+00  0.00000000E+00
  0.00000000E+00  0.00000000E+00  0.00000000E+00
  0.00000000E+00  0.00000000E+00  0.00000000E+00
  0.00000000E+00  0.00000000E+00  0.00000000E+00
  0.00000000E+00  0.00000000E+00  0.00000000E+00
  0.00000000E+00  0.00000000E+00  0.00000000E+00
  0.00000000E+00  0.00000000E+00  0.00000000E+00
  0.00000000E+00  0.00000000E+00  0.00000000E+00
  0.00000000E+00  0.00000000E+00  0.00000000E+00
  0.00000000E+00  0.00000000E+00  0.00000000E+00
  0.00000000E+00  0.00000000E+00  0.00000000E+00
