Ba4 Y2 Cu7 O17
1.0
   3.8446680000000000    0.0000000000000000    0.0000000000000002
  -0.0000000000000002    3.9261520000000001    0.0000000000000002
   0.0000000000000000    0.0000000000000000   59.1183200000000042
Cu O Ba Y Cu O Ba Y Cu O
1 3 2 1 3 7 2 1 3 7
direct
   0.0000000000000000    0.0000000000000000    0.1660211000000000 Cu
   0.0000000000000000    0.5000000000000000    0.1660211000000000 O
   0.0000000000000000    0.0000000000000000    0.1341851000000000 O
   0.0000000000000000    0.0000000000000000    0.1978571000000000 O
   0.5000000000000000    0.5000000000000000    0.3298993000000000 Ba
   0.5000000000000000    0.5000000000000000    0.2021429000000000 Ba
   0.5000000000000000    0.5000000000000000    0.2660211000000000 Y
   0.0000000000000000    0.0000000000000000    0.2953567000000000 Cu
   0.0000000000000000    0.0000000000000000    0.2366855000000000 Cu
   0.0000000000000000    0.0000000000000000    0.3660211000000000 Cu
   0.0000000000000000    0.5000000000000000    0.3660210999999999 O
   0.5000000000000000    0.0000000000000000    0.2901517000000000 O
   0.5000000000000000    0.0000000000000000    0.2418905000000000 O
   0.0000000000000000    0.5000000000000000    0.2903513000000000 O
   0.0000000000000000    0.5000000000000000    0.2416909000000000 O
   0.0000000000000000    0.0000000000000000    0.3341851000000000 O
   0.0000000000000000    0.0000000000000000    0.3978571000000000 O
   0.5000000000000000    0.5000000000000000    0.5298993000000001 Ba
   0.5000000000000000    0.5000000000000000    0.4021429000000000 Ba
   0.5000000000000000    0.5000000000000000    0.4660211000000000 Y
   0.0000000000000000    0.0000000000000000    0.4953567000000000 Cu
   0.0000000000000000    0.0000000000000000    0.4366855000000001 Cu
   0.0000000000000000    0.0000000000000000    0.5660211000000001 Cu
   0.0000000000000000    0.5000000000000000    0.5660211000000001 O
   0.5000000000000000    0.0000000000000000    0.4901517000000000 O
   0.5000000000000000    0.0000000000000000    0.4418905000000000 O
   0.0000000000000000    0.5000000000000000    0.4903513000000000 O
   0.0000000000000000    0.5000000000000000    0.4416909000000001 O
   0.0000000000000000    0.0000000000000000    0.5341851000000000 O
   0.0000000000000000    0.0000000000000000    0.5978571000000000 O
