Ba4 Y2 Cu7 O15                          
   1.00000000000000     
     3.9171353006687082    0.0000000000000000    0.0000000000000002
    -0.0000000000000002    3.7578711029551561    0.0000000000000002
     0.0000000000000001   -0.0000000000000001   57.7505628119142500
   Cu   O    Ba   Y    Cu   O    Ba   Y    Cu   O 
     1     1     2     1     3     7     2     1     3     7
Direct
  0.0000000000000000  0.0000000000000000  0.1858394951937865
 -0.0000000000000000  0.5000000000000000  0.1823457801429060
  0.5000000000000000  0.5000000000000000  0.3473260112892775
  0.5000000000000000  0.5000000000000000  0.2197025443377732
  0.5000000000000000  0.5000000000000000  0.2836033243204299
  0.0000000000000000 -0.0000000000000000  0.3129274601344851
  0.0000000000000000  0.0000000000000000  0.2546186780345039
 -0.0000000000000000  0.0000000000000000  0.3838728095978159
  0.0000000000000000  0.5000000000000000  0.3838815421610303
  0.5000000000000000 -0.0000000000000000  0.3087124027245152
  0.5000000000000000 -0.0000000000000000  0.2584017498707503
  0.0000000000000000  0.5000000000000000  0.3071442419307757
 -0.0000000000000000  0.5000000000000000  0.2593817730995286
  0.0000000000000000  0.0000000000000000  0.3516821947287899
 -0.0000000000000000 -0.0000000000000000  0.2179368493329844
  0.5000000000000000  0.5000000000000000  0.5486418138470279
  0.5000000000000000  0.5000000000000000  0.4206150722576880
  0.5000000000000000  0.5000000000000000  0.4845393444643885
 -0.0000000000000000 -0.0000000000000000  0.5135601054362724
  0.0000000000000000  0.0000000000000000  0.4552199308300922
 -0.0000000000000000 -0.0000000000000000  0.5827860707214529
  0.0000000000000000  0.5000000000000000  0.5861523561174270
  0.5000000000000000 -0.0000000000000000  0.5097342018952729
  0.5000000000000000  0.0000000000000000  0.4593720210101785
  0.0000000000000000  0.5000000000000000  0.5087327208580549
 -0.0000000000000000  0.5000000000000000  0.4608872712367379
  0.0000000000000000  0.0000000000000000  0.5506010279750984
 -0.0000000000000000 -0.0000000000000000  0.4160772064509461
 
  0.00000000E+00  0.00000000E+00  0.00000000E+00
  0.00000000E+00  0.00000000E+00  0.00000000E+00
  0.00000000E+00  0.00000000E+00  0.00000000E+00
  0.00000000E+00  0.00000000E+00  0.00000000E+00
  0.00000000E+00  0.00000000E+00  0.00000000E+00
  0.00000000E+00  0.00000000E+00  0.00000000E+00
  0.00000000E+00  0.00000000E+00  0.00000000E+00
  0.00000000E+00  0.00000000E+00  0.00000000E+00
  0.00000000E+00  0.00000000E+00  0.00000000E+00
  0.00000000E+00  0.00000000E+00  0.00000000E+00
  0.00000000E+00  0.00000000E+00  0.00000000E+00
  0.00000000E+00  0.00000000E+00  0.00000000E+00
  0.00000000E+00  0.00000000E+00  0.00000000E+00
  0.00000000E+00  0.00000000E+00  0.00000000E+00
  0.00000000E+00  0.00000000E+00  0.00000000E+00
  0.00000000E+00  0.00000000E+00  0.00000000E+00
  0.00000000E+00  0.00000000E+00  0.00000000E+00
  0.00000000E+00  0.00000000E+00  0.00000000E+00
  0.00000000E+00  0.00000000E+00  0.00000000E+00
  0.00000000E+00  0.00000000E+00  0.00000000E+00
  0.00000000E+00  0.00000000E+00  0.00000000E+00
  0.00000000E+00  0.00000000E+00  0.00000000E+00
  0.00000000E+00  0.00000000E+00  0.00000000E+00
  0.00000000E+00  0.00000000E+00  0.00000000E+00
  0.00000000E+00  0.00000000E+00  0.00000000E+00
  0.00000000E+00  0.00000000E+00  0.00000000E+00
  0.00000000E+00  0.00000000E+00  0.00000000E+00
  0.00000000E+00  0.00000000E+00  0.00000000E+00
