Ba4 Y3 Cu8 O18                          
   1.00000000000000     
     3.7913351249085188    0.0000000000000000    0.0000000000000002
    -0.0000000000000002    3.8282540227680384    0.0000000000000002
    -0.0000000000000000   -0.0000000000000001   58.6554598669601575
   Ba   Y    Cu   O    Ba   Y    Cu   O    Y    Cu   O 
     2     1     3     7     2     1     3     7     1     2     4
Direct
  0.5000000000000000  0.5000000000000000  0.1097896133464304
  0.5000000000000000  0.5000000000000000  0.1827973184176938
  0.5000000000000000  0.5000000000000000  0.0451160302595912
 -0.0000000000000000 -0.0000000000000000  0.0757605170560995
  0.0000000000000000  0.0000000000000000  0.0175051398762219
  0.0000000000000000  0.0000000000000000  0.1463936417462727
 -0.0000000000000000  0.5000000000000000  0.1467396478655801
  0.5000000000000000  0.0000000000000000  0.0713008285760728
  0.5000000000000000  0.0000000000000000  0.0230743776856091
  0.0000000000000000  0.5000000000000000  0.0711577135492924
  0.0000000000000000  0.5000000000000000  0.0228274423019651
  0.0000000000000000  0.0000000000000000  0.1149800863796140
 -0.0000000000000000 -0.0000000000000000  0.1780624234559743
  0.5000000000000000  0.5000000000000000  0.3103716687515325
  0.5000000000000000  0.5000000000000000  0.3833963530521828
  0.5000000000000000  0.5000000000000000  0.2466476142970453
 -0.0000000000000000 -0.0000000000000000  0.2757741577371556
  0.0000000000000000  0.0000000000000000  0.2174425178547269
  0.0000000000000000  0.0000000000000000  0.3464204689835240
 -0.0000000000000000  0.5000000000000000  0.3464467452880998
  0.5000000000000000 -0.0000000000000000  0.2709416985380138
  0.5000000000000000  0.0000000000000000  0.2223722524775235
 -0.0000000000000000  0.5000000000000000  0.2709165161246493
 -0.0000000000000000  0.5000000000000000  0.2223715606944995
  0.0000000000000000  0.0000000000000000  0.3148574457586995
 -0.0000000000000000 -0.0000000000000000  0.3779420190217243
  0.5000000000000000  0.5000000000000000  0.4482748646739524
 -0.0000000000000000 -0.0000000000000000  0.4757982897837252
  0.0000000000000000  0.0000000000000000  0.4174567411385056
  0.5000000000000000 -0.0000000000000000  0.4703162856978400
  0.5000000000000000 -0.0000000000000000  0.4220448943977576
 -0.0000000000000000  0.5000000000000000  0.4705537764890338
 -0.0000000000000000  0.5000000000000000  0.4221770487233940
 
  0.00000000E+00  0.00000000E+00  0.00000000E+00
  0.00000000E+00  0.00000000E+00  0.00000000E+00
  0.00000000E+00  0.00000000E+00  0.00000000E+00
  0.00000000E+00  0.00000000E+00  0.00000000E+00
  0.00000000E+00  0.00000000E+00  0.00000000E+00
  0.00000000E+00  0.00000000E+00  0.00000000E+00
  0.00000000E+00  0.00000000E+00  0.00000000E+00
  0.00000000E+00  0.00000000E+00  0.00000000E+00
  0.00000000E+00  0.00000000E+00  0.00000000E+00
  0.00000000E+00  0.00000000E+00  0.00000000E+00
  0.00000000E+00  0.00000000E+00  0.00000000E+00
  0.00000000E+00  0.00000000E+00  0.00000000E+00
  0.00000000E+00  0.00000000E+00  0.00000000E+00
  0.00000000E+00  0.00000000E+00  0.00000000E+00
  0.00000000E+00  0.00000000E+00  0.00000000E+00
  0.00000000E+00  0.00000000E+00  0.00000000E+00
  0.00000000E+00  0.00000000E+00  0.00000000E+00
  0.00000000E+00  0.00000000E+00  0.00000000E+00
  0.00000000E+00  0.00000000E+00  0.00000000E+00
  0.00000000E+00  0.00000000E+00  0.00000000E+00
  0.00000000E+00  0.00000000E+00  0.00000000E+00
  0.00000000E+00  0.00000000E+00  0.00000000E+00
  0.00000000E+00  0.00000000E+00  0.00000000E+00
  0.00000000E+00  0.00000000E+00  0.00000000E+00
  0.00000000E+00  0.00000000E+00  0.00000000E+00
  0.00000000E+00  0.00000000E+00  0.00000000E+00
  0.00000000E+00  0.00000000E+00  0.00000000E+00
  0.00000000E+00  0.00000000E+00  0.00000000E+00
  0.00000000E+00  0.00000000E+00  0.00000000E+00
  0.00000000E+00  0.00000000E+00  0.00000000E+00
  0.00000000E+00  0.00000000E+00  0.00000000E+00
  0.00000000E+00  0.00000000E+00  0.00000000E+00
  0.00000000E+00  0.00000000E+00  0.00000000E+00
