Ba4 Y3 Cu8 O18
1.0
   3.8446680000000000    0.0000000000000000    0.0000000000000002
  -0.0000000000000002    3.9261520000000001    0.0000000000000002
   0.0000000000000000    0.0000000000000000   59.1183200000000042
Ba Y Cu O Ba Y Cu O Y Cu O
2 1 3 7 2 1 3 7 1 2 4
direct
   0.5000000000000000    0.5000000000000000    0.1104851000000000 Ba
   0.5000000000000000    0.5000000000000000    0.1827287000000000 Ba
   0.5000000000000000    0.5000000000000000    0.0466069000000000 Y
   0.0000000000000000    0.0000000000000000    0.0759425000000000 Cu
   0.0000000000000000    0.0000000000000000    0.0172713000000000 Cu
   0.0000000000000000    0.0000000000000000    0.1466069000000000 Cu
   0.0000000000000000    0.5000000000000000    0.1466069000000000 O
   0.5000000000000000    0.0000000000000000    0.0707375000000000 O
   0.5000000000000000    0.0000000000000000    0.0224763000000000 O
   0.0000000000000000    0.5000000000000000    0.0709371000000000 O
   0.0000000000000000    0.5000000000000000    0.0222767000000000 O
   0.0000000000000000    0.0000000000000000    0.1147709000000000 O
   0.0000000000000000    0.0000000000000000    0.1784429000000000 O
   0.5000000000000000    0.5000000000000000    0.3104851000000000 Ba
   0.5000000000000000    0.5000000000000000    0.3827287000000000 Ba
   0.5000000000000000    0.5000000000000000    0.2466069000000000 Y
   0.0000000000000000    0.0000000000000000    0.2759425000000000 Cu
   0.0000000000000000    0.0000000000000000    0.2172713000000000 Cu
   0.0000000000000000    0.0000000000000000    0.3466069000000000 Cu
   0.0000000000000000    0.5000000000000000    0.3466069000000001 O
   0.5000000000000000    0.0000000000000000    0.2707375000000000 O
   0.5000000000000000    0.0000000000000000    0.2224763000000000 O
   0.0000000000000000    0.5000000000000000    0.2709371000000000 O
   0.0000000000000000    0.5000000000000000    0.2222767000000000 O
   0.0000000000000000    0.0000000000000000    0.3147709000000000 O
   0.0000000000000000    0.0000000000000000    0.3784429000000000 O
   0.5000000000000000    0.5000000000000000    0.4466069000000000 Y
   0.0000000000000000    0.0000000000000000    0.4759425000000000 Cu
   0.0000000000000000    0.0000000000000000    0.4172713000000000 Cu
   0.5000000000000000    0.0000000000000000    0.4707375000000000 O
   0.5000000000000000    0.0000000000000000    0.4224763000000000 O
   0.0000000000000000    0.5000000000000000    0.4709370999999999 O
   0.0000000000000000    0.5000000000000000    0.4222767000000000 O
