Ba6 Y3 Cu8 O18                          
   1.00000000000000     
     3.8557357029727606   -0.0000000000000000    0.0000000000000002
    -0.0000000000000002    3.9351703630168333    0.0000000000000002
     0.0000000000000000    0.0000000000000000   57.3875224433310720
   Ba   Y    Cu   O    Ba   Y    Cu   O    Ba   Y    Cu   O 
     2     1     3     7     2     1     3     7     2     1     2     4
Direct
  0.5000000000000000  0.5000000000000000  0.1305734691627765
  0.5000000000000000  0.5000000000000000  0.0073943113016493
  0.5000000000000000  0.5000000000000000  0.0679353254514106
  0.0000000000000000  0.0000000000000000  0.0941826119483338
 -0.0000000000000000  0.0000000000000000  0.0385234399943580
  0.0000000000000000  0.0000000000000000  0.1659570419399883
 -0.0000000000000000  0.5000000000000000  0.1655412158975318
  0.5000000000000000 -0.0000000000000000  0.0880767744880922
  0.5000000000000000 -0.0000000000000000  0.0373938600624837
 -0.0000000000000000  0.5000000000000000  0.0891331147731428
  0.0000000000000000  0.5000000000000000  0.0383893308145260
  0.0000000000000000  0.0000000000000000  0.1333004193459416
 -0.0000000000000000 -0.0000000000000000  0.1979402857414471
  0.5000000000000000  0.5000000000000000  0.3294417714684237
  0.5000000000000000  0.5000000000000000  0.2027493102933525
  0.5000000000000000  0.5000000000000000  0.2661028759475383
  0.0000000000000000  0.0000000000000000  0.2952112903388784
 -0.0000000000000000 -0.0000000000000000  0.2370642003706822
 -0.0000000000000000 -0.0000000000000000  0.3663196089782149
  0.0000000000000000  0.5000000000000000  0.3666371528135274
  0.5000000000000000 -0.0000000000000000  0.2905709055104230
  0.5000000000000000  0.0000000000000000  0.2416532130683097
 -0.0000000000000000  0.5000000000000000  0.2907705953378444
  0.0000000000000000  0.5000000000000000  0.2414463919917035
  0.0000000000000000  0.0000000000000000  0.3343147802871276
 -0.0000000000000000 -0.0000000000000000  0.3989142939702567
  0.5000000000000000  0.5000000000000000  0.5244790232564267
  0.5000000000000000  0.5000000000000000  0.4014584865406035
  0.5000000000000000  0.5000000000000000  0.4639184091529298
  0.0000000000000000 -0.0000000000000000  0.4934778487173005
 -0.0000000000000000 -0.0000000000000000  0.4374094695465243
  0.5000000000000000  0.0000000000000000  0.4944952377846925
  0.5000000000000000  0.0000000000000000  0.4437720624215619
 -0.0000000000000000  0.5000000000000000  0.4934823989957949
  0.0000000000000000  0.5000000000000000  0.4427079722862075
 
  0.00000000E+00  0.00000000E+00  0.00000000E+00
  0.00000000E+00  0.00000000E+00  0.00000000E+00
  0.00000000E+00  0.00000000E+00  0.00000000E+00
  0.00000000E+00  0.00000000E+00  0.00000000E+00
  0.00000000E+00  0.00000000E+00  0.00000000E+00
  0.00000000E+00  0.00000000E+00  0.00000000E+00
  0.00000000E+00  0.00000000E+00  0.00000000E+00
  0.00000000E+00  0.00000000E+00  0.00000000E+00
  0.00000000E+00  0.00000000E+00  0.00000000E+00
  0.00000000E+00  0.00000000E+00  0.00000000E+00
  0.00000000E+00  0.00000000E+00  0.00000000E+00
  0.00000000E+00  0.00000000E+00  0.00000000E+00
  0.00000000E+00  0.00000000E+00  0.00000000E+00
  0.00000000E+00  0.00000000E+00  0.00000000E+00
  0.00000000E+00  0.00000000E+00  0.00000000E+00
  0.00000000E+00  0.00000000E+00  0.00000000E+00
  0.00000000E+00  0.00000000E+00  0.00000000E+00
  0.00000000E+00  0.00000000E+00  0.00000000E+00
  0.00000000E+00  0.00000000E+00  0.00000000E+00
  0.00000000E+00  0.00000000E+00  0.00000000E+00
  0.00000000E+00  0.00000000E+00  0.00000000E+00
  0.00000000E+00  0.00000000E+00  0.00000000E+00
  0.00000000E+00  0.00000000E+00  0.00000000E+00
  0.00000000E+00  0.00000000E+00  0.00000000E+00
  0.00000000E+00  0.00000000E+00  0.00000000E+00
  0.00000000E+00  0.00000000E+00  0.00000000E+00
  0.00000000E+00  0.00000000E+00  0.00000000E+00
  0.00000000E+00  0.00000000E+00  0.00000000E+00
  0.00000000E+00  0.00000000E+00  0.00000000E+00
  0.00000000E+00  0.00000000E+00  0.00000000E+00
  0.00000000E+00  0.00000000E+00  0.00000000E+00
  0.00000000E+00  0.00000000E+00  0.00000000E+00
  0.00000000E+00  0.00000000E+00  0.00000000E+00
  0.00000000E+00  0.00000000E+00  0.00000000E+00
  0.00000000E+00  0.00000000E+00  0.00000000E+00
