Ba6 Y3 Cu8 O20                          
   1.00000000000000     
     3.8154111203881373    0.0000000000000000    0.0000000000000002
    -0.0000000000000002    3.8549198094225088    0.0000000000000002
    -0.0000000000000000   -0.0000000000000001   58.2620204258618415
   Ba   Y    Cu   O    Ba   Y    Cu   O    Ba   Y    Cu   O 
     2     1     3     7     2     1     3     7     2     1     2     6
Direct
  0.5000000000000000  0.5000000000000000  0.1474658982010034
  0.5000000000000000  0.5000000000000000  0.0207282865911548
  0.5000000000000000  0.5000000000000000  0.0838814554381305
 -0.0000000000000000 -0.0000000000000000  0.1128095964220272
 -0.0000000000000000 -0.0000000000000000  0.0538590171273365
  0.0000000000000000 -0.0000000000000000  0.1838574789076173
 -0.0000000000000000  0.5000000000000000  0.1839203011235439
  0.5000000000000000  0.0000000000000000  0.1084029649163407
  0.5000000000000000  0.0000000000000000  0.0599259834706613
 -0.0000000000000000  0.5000000000000000  0.1082506058059571
  0.0000000000000000  0.5000000000000000  0.0593278686454858
  0.0000000000000000  0.0000000000000000  0.1521210073774203
  0.0000000000000000  0.0000000000000000  0.0182143283930094
  0.5000000000000000  0.5000000000000000  0.3476291530227524
  0.5000000000000000  0.5000000000000000  0.2202904248619135
  0.5000000000000000  0.5000000000000000  0.2839482402734466
 -0.0000000000000000 -0.0000000000000000  0.3128495619841370
  0.0000000000000000  0.0000000000000000  0.2549370286902367
  0.0000000000000000 -0.0000000000000000  0.3839873489981911
 -0.0000000000000000  0.5000000000000000  0.3841177299536273
  0.5000000000000000  0.0000000000000000  0.3083032230271259
  0.5000000000000000 -0.0000000000000000  0.2596209336908765
 -0.0000000000000000  0.5000000000000000  0.3083025373155038
  0.0000000000000000  0.5000000000000000  0.2596280455001558
  0.0000000000000000  0.0000000000000000  0.3522803939033628
 -0.0000000000000000 -0.0000000000000000  0.2156130381312242
  0.5000000000000000  0.5000000000000000  0.5479181867167394
  0.5000000000000000  0.5000000000000000  0.4205843068531168
  0.5000000000000000  0.5000000000000000  0.4845127680633321
 -0.0000000000000000  0.0000000000000000  0.5148851719356048
  0.0000000000000000  0.0000000000000000  0.4550002413476270
  0.5000000000000000 -0.0000000000000000  0.5085439942322452
  0.5000000000000000 -0.0000000000000000  0.4598735138280012
 -0.0000000000000000  0.5000000000000000  0.5091271728757865
  0.0000000000000000  0.5000000000000000  0.4599762374489117
 -0.0000000000000000 -0.0000000000000000  0.5505140198784422
 -0.0000000000000000 -0.0000000000000000  0.4158259350479335
 
  0.00000000E+00  0.00000000E+00  0.00000000E+00
  0.00000000E+00  0.00000000E+00  0.00000000E+00
  0.00000000E+00  0.00000000E+00  0.00000000E+00
  0.00000000E+00  0.00000000E+00  0.00000000E+00
  0.00000000E+00  0.00000000E+00  0.00000000E+00
  0.00000000E+00  0.00000000E+00  0.00000000E+00
  0.00000000E+00  0.00000000E+00  0.00000000E+00
  0.00000000E+00  0.00000000E+00  0.00000000E+00
  0.00000000E+00  0.00000000E+00  0.00000000E+00
  0.00000000E+00  0.00000000E+00  0.00000000E+00
  0.00000000E+00  0.00000000E+00  0.00000000E+00
  0.00000000E+00  0.00000000E+00  0.00000000E+00
  0.00000000E+00  0.00000000E+00  0.00000000E+00
  0.00000000E+00  0.00000000E+00  0.00000000E+00
  0.00000000E+00  0.00000000E+00  0.00000000E+00
  0.00000000E+00  0.00000000E+00  0.00000000E+00
  0.00000000E+00  0.00000000E+00  0.00000000E+00
  0.00000000E+00  0.00000000E+00  0.00000000E+00
  0.00000000E+00  0.00000000E+00  0.00000000E+00
  0.00000000E+00  0.00000000E+00  0.00000000E+00
  0.00000000E+00  0.00000000E+00  0.00000000E+00
  0.00000000E+00  0.00000000E+00  0.00000000E+00
  0.00000000E+00  0.00000000E+00  0.00000000E+00
  0.00000000E+00  0.00000000E+00  0.00000000E+00
  0.00000000E+00  0.00000000E+00  0.00000000E+00
  0.00000000E+00  0.00000000E+00  0.00000000E+00
  0.00000000E+00  0.00000000E+00  0.00000000E+00
  0.00000000E+00  0.00000000E+00  0.00000000E+00
  0.00000000E+00  0.00000000E+00  0.00000000E+00
  0.00000000E+00  0.00000000E+00  0.00000000E+00
  0.00000000E+00  0.00000000E+00  0.00000000E+00
  0.00000000E+00  0.00000000E+00  0.00000000E+00
  0.00000000E+00  0.00000000E+00  0.00000000E+00
  0.00000000E+00  0.00000000E+00  0.00000000E+00
  0.00000000E+00  0.00000000E+00  0.00000000E+00
  0.00000000E+00  0.00000000E+00  0.00000000E+00
  0.00000000E+00  0.00000000E+00  0.00000000E+00
