Ba6 Y3 Cu8 O20
1.0
   3.8446680000000000    0.0000000000000000    0.0000000000000002
  -0.0000000000000002    3.9261520000000001    0.0000000000000002
   0.0000000000000000    0.0000000000000000   59.1183200000000042
Ba Y Cu O Ba Y Cu O Ba Y Cu O
2 1 3 7 2 1 3 7 2 1 2 6
direct
   0.5000000000000000    0.5000000000000000    0.1479602000000000 Ba
   0.5000000000000000    0.5000000000000000    0.0202038000000000 Ba
   0.5000000000000000    0.5000000000000000    0.0840820000000000 Y
   0.0000000000000000    0.0000000000000000    0.1134176000000000 Cu
   0.0000000000000000    0.0000000000000000    0.0547464000000000 Cu
   0.0000000000000000    0.0000000000000000    0.1840820000000000 Cu
   0.0000000000000000    0.5000000000000000    0.1840820000000000 O
   0.5000000000000000    0.0000000000000000    0.1082126000000000 O
   0.5000000000000000    0.0000000000000000    0.0599514000000000 O
   0.0000000000000000    0.5000000000000000    0.1084122000000000 O
   0.0000000000000000    0.5000000000000000    0.0597518000000000 O
   0.0000000000000000    0.0000000000000000    0.1522460000000000 O
   0.0000000000000000    0.0000000000000000    0.0159180000000000 O
   0.5000000000000000    0.5000000000000000    0.3479602000000000 Ba
   0.5000000000000000    0.5000000000000000    0.2202038000000000 Ba
   0.5000000000000000    0.5000000000000000    0.2840820000000000 Y
   0.0000000000000000    0.0000000000000000    0.3134176000000000 Cu
   0.0000000000000000    0.0000000000000000    0.2547464000000000 Cu
   0.0000000000000000    0.0000000000000000    0.3840820000000000 Cu
   0.0000000000000000    0.5000000000000000    0.3840820000000000 O
   0.5000000000000000    0.0000000000000000    0.3082126000000001 O
   0.5000000000000000    0.0000000000000000    0.2599514000000000 O
   0.0000000000000000    0.5000000000000000    0.3084122000000000 O
   0.0000000000000000    0.5000000000000000    0.2597518000000000 O
   0.0000000000000000    0.0000000000000000    0.3522460000000000 O
   0.0000000000000000    0.0000000000000000    0.2159180000000000 O
   0.5000000000000000    0.5000000000000000    0.5479601999999999 Ba
   0.5000000000000000    0.5000000000000000    0.4202038000000000 Ba
   0.5000000000000000    0.5000000000000000    0.4840820000000000 Y
   0.0000000000000000    0.0000000000000000    0.5134176000000000 Cu
   0.0000000000000000    0.0000000000000000    0.4547464000000001 Cu
   0.5000000000000000    0.0000000000000000    0.5082126000000000 O
   0.5000000000000000    0.0000000000000000    0.4599514000000000 O
   0.0000000000000000    0.5000000000000000    0.5084122000000000 O
   0.0000000000000000    0.5000000000000000    0.4597518000000000 O
   0.0000000000000000    0.0000000000000000    0.5522460000000000 O
   0.0000000000000000    0.0000000000000000    0.4159180000000000 O
