Ba4 Y3 Cu6 O14                          
   1.00000000000000     
     3.8437170901336231   -0.0000000000000000    0.0000000000000002
    -0.0000000000000002    3.9786329995041112    0.0000000000000002
    -0.0000000000000000    0.0000000000000000   57.5453697007641196
   Ba   Y    Cu   O    Ba   Y    Cu   O    Y 
     2     1     3     7     2     1     3     7     1
Direct
  0.5000000000000000  0.5000000000000000  0.0791060372394855
  0.5000000000000000  0.5000000000000000  0.1493144295178801
  0.5000000000000000  0.5000000000000000  0.0166544944372586
 -0.0000000000000000 -0.0000000000000000  0.0418281863734455
  0.0000000000000000  0.0000000000000000  0.1833121137317959
  0.0000000000000000  0.0000000000000000  0.1121986409532661
  0.0000000000000000  0.5000000000000000  0.1118059982414799
  0.5000000000000000 -0.0000000000000000  0.0312596746693267
  0.5000000000000000  0.0000000000000000  0.1878087457229621
 -0.0000000000000000  0.5000000000000000  0.0337693121239115
  0.0000000000000000  0.5000000000000000  0.1873695797676370
  0.0000000000000000  0.0000000000000000  0.0786984019405161
 -0.0000000000000000 -0.0000000000000000  0.1441085014892552
  0.5000000000000000  0.5000000000000000  0.2750070704127205
  0.5000000000000000  0.5000000000000000  0.3453403477275427
  0.5000000000000000  0.5000000000000000  0.2121118634432817
  0.0000000000000000  0.0000000000000000  0.2406927667267250
  0.0000000000000000  0.0000000000000000  0.3822176096310596
 -0.0000000000000000 -0.0000000000000000  0.3122288940635218
 -0.0000000000000000  0.5000000000000000  0.3126706866946868
  0.5000000000000000 -0.0000000000000000  0.2363923323894553
  0.5000000000000000  0.0000000000000000  0.3932899051674418
 -0.0000000000000000  0.5000000000000000  0.2368458934599583
  0.0000000000000000  0.5000000000000000  0.3906216979324176
  0.0000000000000000  0.0000000000000000  0.2803307306591055
 -0.0000000000000000 -0.0000000000000000  0.3456982324689309
  0.5000000000000000  0.5000000000000000  0.4077755530149323
 
  0.00000000E+00  0.00000000E+00  0.00000000E+00
  0.00000000E+00  0.00000000E+00  0.00000000E+00
  0.00000000E+00  0.00000000E+00  0.00000000E+00
  0.00000000E+00  0.00000000E+00  0.00000000E+00
  0.00000000E+00  0.00000000E+00  0.00000000E+00
  0.00000000E+00  0.00000000E+00  0.00000000E+00
  0.00000000E+00  0.00000000E+00  0.00000000E+00
  0.00000000E+00  0.00000000E+00  0.00000000E+00
  0.00000000E+00  0.00000000E+00  0.00000000E+00
  0.00000000E+00  0.00000000E+00  0.00000000E+00
  0.00000000E+00  0.00000000E+00  0.00000000E+00
  0.00000000E+00  0.00000000E+00  0.00000000E+00
  0.00000000E+00  0.00000000E+00  0.00000000E+00
  0.00000000E+00  0.00000000E+00  0.00000000E+00
  0.00000000E+00  0.00000000E+00  0.00000000E+00
  0.00000000E+00  0.00000000E+00  0.00000000E+00
  0.00000000E+00  0.00000000E+00  0.00000000E+00
  0.00000000E+00  0.00000000E+00  0.00000000E+00
  0.00000000E+00  0.00000000E+00  0.00000000E+00
  0.00000000E+00  0.00000000E+00  0.00000000E+00
  0.00000000E+00  0.00000000E+00  0.00000000E+00
  0.00000000E+00  0.00000000E+00  0.00000000E+00
  0.00000000E+00  0.00000000E+00  0.00000000E+00
  0.00000000E+00  0.00000000E+00  0.00000000E+00
  0.00000000E+00  0.00000000E+00  0.00000000E+00
  0.00000000E+00  0.00000000E+00  0.00000000E+00
  0.00000000E+00  0.00000000E+00  0.00000000E+00
