Ba6 Y2 Cu7 O17                          
   1.00000000000000     
     3.7861882303780527    0.0000000000000000    0.0000000000000002
    -0.0000000000000002    3.9097975567953558    0.0000000000000002
    -0.0000000000000000   -0.0000000000000000   58.2862357214452871
   Ba   Cu   O    Ba   Y    Cu   O    Ba   Y    Cu   O 
     2     1     3     2     1     3     7     2     1     3     7
Direct
  0.5000000000000000  0.5000000000000000  0.1130241484711613
  0.5000000000000000  0.5000000000000000  0.1835729787692889
  0.0000000000000000  0.0000000000000000  0.1461251356757750
 -0.0000000000000000  0.5000000000000000  0.1456500720337466
 -0.0000000000000000 -0.0000000000000000  0.1133372704051969
 -0.0000000000000000 -0.0000000000000000  0.1777478945670420
  0.5000000000000000  0.5000000000000000  0.3102237574358010
  0.5000000000000000  0.5000000000000000  0.3827623621227695
  0.5000000000000000  0.5000000000000000  0.2467387312048050
 -0.0000000000000000 -0.0000000000000000  0.2757901094971343
  0.0000000000000000  0.0000000000000000  0.2179519185899380
 -0.0000000000000000  0.0000000000000000  0.3463709839869638
 -0.0000000000000000  0.5000000000000000  0.3464355042958002
  0.5000000000000000 -0.0000000000000000  0.2706542562441119
  0.5000000000000000  0.0000000000000000  0.2224603973518080
 -0.0000000000000000  0.5000000000000000  0.2711033268927504
 -0.0000000000000000  0.5000000000000000  0.2218907629394913
  0.0000000000000000  0.0000000000000000  0.3146981221212046
 -0.0000000000000000 -0.0000000000000000  0.3780652065355589
  0.5000000000000000  0.5000000000000000  0.5097390706404926
  0.5000000000000000  0.5000000000000000  0.5803960581040850
  0.5000000000000000  0.5000000000000000  0.4464083968280153
 -0.0000000000000000 -0.0000000000000000  0.4752032051254143
  0.0000000000000000  0.0000000000000000  0.4174951429098347
 -0.0000000000000000 -0.0000000000000000  0.5473743785534768
  0.0000000000000000  0.5000000000000000  0.5477794334761957
  0.5000000000000000 -0.0000000000000000  0.4707324282152744
  0.5000000000000000  0.0000000000000000  0.4225126357901106
  0.0000000000000000  0.5000000000000000  0.4712956384825687
 -0.0000000000000000  0.5000000000000000  0.4220173597729042
  0.0000000000000000  0.0000000000000000  0.5157492289188376
  0.0000000000000000  0.0000000000000000  0.5801148840424440
 
  0.00000000E+00  0.00000000E+00  0.00000000E+00
  0.00000000E+00  0.00000000E+00  0.00000000E+00
  0.00000000E+00  0.00000000E+00  0.00000000E+00
  0.00000000E+00  0.00000000E+00  0.00000000E+00
  0.00000000E+00  0.00000000E+00  0.00000000E+00
  0.00000000E+00  0.00000000E+00  0.00000000E+00
  0.00000000E+00  0.00000000E+00  0.00000000E+00
  0.00000000E+00  0.00000000E+00  0.00000000E+00
  0.00000000E+00  0.00000000E+00  0.00000000E+00
  0.00000000E+00  0.00000000E+00  0.00000000E+00
  0.00000000E+00  0.00000000E+00  0.00000000E+00
  0.00000000E+00  0.00000000E+00  0.00000000E+00
  0.00000000E+00  0.00000000E+00  0.00000000E+00
  0.00000000E+00  0.00000000E+00  0.00000000E+00
  0.00000000E+00  0.00000000E+00  0.00000000E+00
  0.00000000E+00  0.00000000E+00  0.00000000E+00
  0.00000000E+00  0.00000000E+00  0.00000000E+00
  0.00000000E+00  0.00000000E+00  0.00000000E+00
  0.00000000E+00  0.00000000E+00  0.00000000E+00
  0.00000000E+00  0.00000000E+00  0.00000000E+00
  0.00000000E+00  0.00000000E+00  0.00000000E+00
  0.00000000E+00  0.00000000E+00  0.00000000E+00
  0.00000000E+00  0.00000000E+00  0.00000000E+00
  0.00000000E+00  0.00000000E+00  0.00000000E+00
  0.00000000E+00  0.00000000E+00  0.00000000E+00
  0.00000000E+00  0.00000000E+00  0.00000000E+00
  0.00000000E+00  0.00000000E+00  0.00000000E+00
  0.00000000E+00  0.00000000E+00  0.00000000E+00
  0.00000000E+00  0.00000000E+00  0.00000000E+00
  0.00000000E+00  0.00000000E+00  0.00000000E+00
  0.00000000E+00  0.00000000E+00  0.00000000E+00
  0.00000000E+00  0.00000000E+00  0.00000000E+00
