Ba2 Y1 Cu3 O7                           
   1.00000000000000     
     3.8127805442050873    0.0000000000000000    0.0000000000000002
    -0.0000000000000002    3.8661664969183289    0.0000000000000002
    -0.0000000000000000   -0.0000000000000000   11.7099146210000775
   Ba   Y    Cu   O 
     2     1     3     7
Direct
  0.5000000000000000  0.5000000000000000  0.8181786528367883
  0.5000000000000000  0.5000000000000000  0.1818213471632118
  0.5000000000000000  0.5000000000000000  0.5000000000000000
 -0.0000000000000000 -0.0000000000000000  0.6444153373158215
  0.0000000000000000  0.0000000000000000  0.3555846626841785
  0.0000000000000000 -0.0000000000000000 -0.0000000000000000
  0.0000000000000000  0.5000000000000000 -0.0000000000000000
  0.5000000000000000 -0.0000000000000000  0.6209905146535493
  0.5000000000000000  0.0000000000000000  0.3790094853464505
 -0.0000000000000000  0.5000000000000000  0.6215250411737456
  0.0000000000000000  0.5000000000000000  0.3784749588262544
  0.0000000000000000  0.0000000000000000  0.8420953521023226
 -0.0000000000000000 -0.0000000000000000  0.1579046478976776
 
  0.00000000E+00  0.00000000E+00  0.00000000E+00
  0.00000000E+00  0.00000000E+00  0.00000000E+00
  0.00000000E+00  0.00000000E+00  0.00000000E+00
  0.00000000E+00  0.00000000E+00  0.00000000E+00
  0.00000000E+00  0.00000000E+00  0.00000000E+00
  0.00000000E+00  0.00000000E+00  0.00000000E+00
  0.00000000E+00  0.00000000E+00  0.00000000E+00
  0.00000000E+00  0.00000000E+00  0.00000000E+00
  0.00000000E+00  0.00000000E+00  0.00000000E+00
  0.00000000E+00  0.00000000E+00  0.00000000E+00
  0.00000000E+00  0.00000000E+00  0.00000000E+00
  0.00000000E+00  0.00000000E+00  0.00000000E+00
  0.00000000E+00  0.00000000E+00  0.00000000E+00
